590
0
2038
1219
818
850
1243
496
0
1857
1639
2935
2393
778
2830
1195
0
1398
947
0
0
3550
2537
0
1101
1232
2140
1801
1753
697
592
0
810
1635
1315
0
0
0
1221
690
1575
1849
1780
26
2223
2325
3479
1237
699
1426
1101
1672
0
1437
1060
1685
556
0
3310
536
0
74
1997
1214
399
965
1425
358
1167
919
1254
158
1553
1432
0
1975
2325
658
1851
220
2172
1665
1198
438
0
0
1569
1323
1761
1093
886
2208
1596
964
302
1711
374
1220
1455